instances/knapsack/discrete/knapsack_150_2.lp
\ Model knapsack_150_2
\ LP format - for model browsing. Use MPS format to capture full model detail.
\ Signature: 0x1d3d114bfbe69093
Minimize
  - 67 x[0] - 4 x[1] - 57 x[2] - 77 x[3] - 51 x[4] - 98 x[5] - 71 x[6]
   - 9 x[7] - 12 x[8] - 40 x[9] - 24 x[10] - 84 x[11] - 80 x[12] - 59 x[13]
   - 84 x[14] - 5 x[15] - 95 x[16] - 31 x[17] - 4 x[18] - 35 x[19]
   - 67 x[20] - 76 x[21] - 69 x[22] - 93 x[23] - 90 x[24] - 76 x[25]
   - x[26] - 85 x[27] - 63 x[28] - 30 x[29] - 98 x[30] - 93 x[31]
   - 25 x[32] - 24 x[33] - 73 x[34] - 50 x[35] - 98 x[36] - 92 x[37]
   - 80 x[38] - 5 x[39] - 81 x[40] - 11 x[41] - 3 x[42] - 68 x[43]
   - 12 x[44] - 52 x[45] - 62 x[46] - 50 x[47] - 78 x[48] - 43 x[49]
   - 84 x[50] - 76 x[51] - 64 x[52] - 78 x[53] - 61 x[54] - 27 x[55]
   - 40 x[56] - 49 x[57] - 61 x[58] - 68 x[59] - 37 x[60] - 23 x[61]
   - 91 x[62] - 35 x[63] - 20 x[64] - 10 x[65] - 62 x[66] - 7 x[67]
   - 42 x[68] - 75 x[69] - 38 x[70] - 16 x[71] - 78 x[72] - 27 x[73]
   - 8 x[74] - 75 x[75] - 11 x[76] - 18 x[77] - 53 x[78] - 57 x[79]
   - 24 x[80] - 95 x[81] - 19 x[82] - 3 x[83] - 26 x[84] - 82 x[85]
   - 7 x[86] - 84 x[87] - 49 x[88] - 72 x[89] - 63 x[90] - 83 x[91]
   - 19 x[92] - 38 x[93] - 25 x[94] - 52 x[95] - 78 x[96] - 81 x[97]
   - 66 x[98] - 98 x[99] - 6 x[100] - 75 x[101] - 36 x[102] - 43 x[103]
   - 72 x[104] - 80 x[105] - 55 x[106] - 26 x[107] - 71 x[108] - 6 x[109]
   - 7 x[110] - 31 x[111] - 87 x[112] - 41 x[113] - 43 x[114] - 18 x[115]
   - 52 x[116] - 22 x[117] - 27 x[118] - 32 x[119] - 91 x[120] - 4 x[121]
   - 99 x[122] - 80 x[123] - 53 x[124] - 6 x[125] - 90 x[126] - 3 x[127]
   - 77 x[128] - 34 x[129] - 72 x[130] - 64 x[131] - 17 x[132] - 48 x[133]
   - 59 x[134] - 21 x[135] - 86 x[136] - 7 x[137] - 12 x[138] - 87 x[139]
   - 43 x[140] - 34 x[141] - 55 x[142] - 89 x[143] - 93 x[144] - 100 x[145]
   - 90 x[146] - 8 x[147] - 22 x[148] - 20 x[149]
Subject To
 primal_upper: 69 x[0] + 5 x[1] + 95 x[2] + 64 x[3] + 81 x[4] + 79 x[5]
   + 98 x[6] + 9 x[7] + 50 x[8] + 15 x[9] + 93 x[10] + 24 x[11] + 49 x[12]
   + 13 x[13] + 10 x[14] + 10 x[15] + 74 x[16] + 17 x[17] + 50 x[18]
   + 39 x[19] + 38 x[20] + 17 x[21] + 97 x[22] + 68 x[23] + 2 x[24]
   + 9 x[25] + 75 x[26] + 61 x[27] + 23 x[28] + 40 x[29] + 83 x[30]
   + 41 x[31] + 17 x[32] + 42 x[33] + 13 x[34] + 30 x[35] + 5 x[36]
   + 54 x[37] + 57 x[38] + 80 x[39] + 56 x[40] + 43 x[41] + 19 x[42]
   + 55 x[43] + 92 x[44] + 8 x[45] + 95 x[46] + 7 x[47] + 20 x[48]
   + 53 x[49] + 36 x[50] + x[51] + 34 x[52] + 89 x[53] + 90 x[54]
   + 37 x[55] + 94 x[56] + 40 x[57] + 25 x[58] + 47 x[59] + 50 x[60]
   + 16 x[61] + 21 x[62] + 12 x[63] + 93 x[64] + 57 x[65] + 6 x[66]
   + 60 x[67] + 89 x[68] + 59 x[69] + 55 x[70] + 47 x[71] + 35 x[72]
   + 52 x[73] + 65 x[74] + 2 x[75] + 56 x[76] + 8 x[77] + 30 x[78]
   + 100 x[79] + 7 x[80] + 7 x[81] + 56 x[82] + 55 x[83] + 31 x[84]
   + 67 x[85] + 21 x[86] + 49 x[87] + 99 x[88] + 44 x[89] + 98 x[90]
   + 46 x[91] + 34 x[92] + x[93] + 61 x[94] + 66 x[95] + 46 x[96]
   + 42 x[97] + 29 x[98] + 49 x[99] + 46 x[100] + 65 x[101] + 51 x[102]
   + 21 x[103] + 54 x[104] + 43 x[105] + 60 x[106] + 36 x[107] + 76 x[108]
   + 34 x[109] + 48 x[110] + 44 x[111] + 78 x[112] + 34 x[113] + 18 x[114]
   + 88 x[115] + 92 x[116] + 62 x[117] + 30 x[118] + 10 x[119] + 53 x[120]
   + 82 x[121] + 89 x[122] + 92 x[123] + 6 x[124] + 60 x[125] + 33 x[126]
   + 41 x[127] + 80 x[128] + 64 x[129] + 7 x[130] + 50 x[131] + 100 x[132]
   + 61 x[133] + 78 x[134] + 15 x[135] + 98 x[136] + 32 x[137] + 67 x[138]
   + 73 x[139] + 72 x[140] + 58 x[141] + 92 x[142] + 56 x[143] + 2 x[144]
   + 27 x[145] + 55 x[146] + 100 x[147] + 2 x[148] + 31 x[149] + 6.9 r[0]
   + 0.5 r[1] + 9.5 r[2] + 6.4 r[3] + 8.1 r[4] + 7.9 r[5] + 9.8 r[6]
   + 0.9 r[7] + 5 r[8] + 1.5 r[9] + 9.3 r[10] + 2.4 r[11] + 4.9 r[12]
   + 1.3 r[13] + r[14] + r[15] + 7.4 r[16] + 1.7 r[17] + 5 r[18]
   + 3.9 r[19] + 3.8 r[20] + 1.7 r[21] + 9.7 r[22] + 6.8 r[23] + 0.2 r[24]
   + 0.9 r[25] + 7.5 r[26] + 6.1 r[27] + 2.3 r[28] + 4 r[29] + 8.3 r[30]
   + 4.1 r[31] + 1.7 r[32] + 4.2 r[33] + 1.3 r[34] + 3 r[35] + 0.5 r[36]
   + 5.4 r[37] + 5.7 r[38] + 8 r[39] + 5.6 r[40] + 4.3 r[41] + 1.9 r[42]
   + 5.5 r[43] + 9.2 r[44] + 0.8 r[45] + 9.5 r[46] + 0.7 r[47] + 2 r[48]
   + 5.3 r[49] + 3.6 r[50] + 0.1 r[51] + 3.4 r[52] + 8.9 r[53] + 9 r[54]
   + 3.7 r[55] + 9.4 r[56] + 4 r[57] + 2.5 r[58] + 4.7 r[59] + 5 r[60]
   + 1.6 r[61] + 2.1 r[62] + 1.2 r[63] + 9.3 r[64] + 5.7 r[65] + 0.6 r[66]
   + 6 r[67] + 8.9 r[68] + 5.9 r[69] + 5.5 r[70] + 4.7 r[71] + 3.5 r[72]
   + 5.2 r[73] + 6.5 r[74] + 0.2 r[75] + 5.6 r[76] + 0.8 r[77] + 3 r[78]
   + 10 r[79] + 0.7 r[80] + 0.7 r[81] + 5.6 r[82] + 5.5 r[83] + 3.1 r[84]
   + 6.7 r[85] + 2.1 r[86] + 4.9 r[87] + 9.9 r[88] + 4.4 r[89] + 9.8 r[90]
   + 4.6 r[91] + 3.4 r[92] + 0.1 r[93] + 6.1 r[94] + 6.6 r[95] + 4.6 r[96]
   + 4.2 r[97] + 2.9 r[98] + 4.9 r[99] + 4.6 r[100] + 6.5 r[101]
   + 5.1 r[102] + 2.1 r[103] + 5.4 r[104] + 4.3 r[105] + 6 r[106]
   + 3.6 r[107] + 7.6 r[108] + 3.4 r[109] + 4.8 r[110] + 4.4 r[111]
   + 7.8 r[112] + 3.4 r[113] + 1.8 r[114] + 8.8 r[115] + 9.2 r[116]
   + 6.2 r[117] + 3 r[118] + r[119] + 5.3 r[120] + 8.2 r[121] + 8.9 r[122]
   + 9.2 r[123] + 0.6 r[124] + 6 r[125] + 3.3 r[126] + 4.1 r[127]
   + 8 r[128] + 6.4 r[129] + 0.7 r[130] + 5 r[131] + 10 r[132] + 6.1 r[133]
   + 7.8 r[134] + 1.5 r[135] + 9.8 r[136] + 3.2 r[137] + 6.7 r[138]
   + 7.3 r[139] + 7.2 r[140] + 5.8 r[141] + 9.2 r[142] + 5.6 r[143]
   + 0.2 r[144] + 2.7 r[145] + 5.5 r[146] + 10 r[147] + 0.2 r[148]
   + 3.1 r[149] <= 688
 primal_lower: 1.681713267531832 x[0] + 2.270672348863273 x[1]
   + 0.3344899010006268 x[2] + 4.706246434390731 x[3]
   + 0.2816782639012215 x[4] + 4.508772170156073 x[5]
   + 0.2431115084902453 x[6] + 4.288136331926507 x[7]
   + 2.802450601966043 x[8] + 1.108096166831569 x[9]
   + 2.435990926425501 x[10] + 1.222625169746741 x[11]
   + 1.869411389351497 x[12] + 2.879056411835645 x[13]
   + 3.914647789556197 x[14] + 2.207476865441376 x[15]
   + 3.712807510336841 x[16] + 2.192768398234934 x[17]
   + 1.10168190053647 x[18] + 0.0285325662874403 x[19]
   + 4.726642422555406 x[20] + 1.568774103136857 x[21]
   + 1.962806066363532 x[22] + 2.414949390072991 x[23]
   + 0.665686113322555 x[24] + 2.585521215660233 x[25]
   + 2.950798713803915 x[26] + 3.530557156665942 x[27]
   + 1.782626297395036 x[28] + 0.0958220249898062 x[29]
   + 3.443507325952154 x[30] + 0.4851260719828699 x[31]
   + 4.69005679709737 x[32] + 1.556152617525075 x[33]
   + 1.317874478977793 x[34] + 3.05170713312011 x[35]
   + 1.822090456300281 x[36] + 0.2285100947225885 x[37]
   + 1.337226601057891 x[38] + 1.390540358533034 x[39]
   + 1.195015716755545 x[40] + 1.046340193280311 x[41]
   + 1.290071384179189 x[42] + 2.201521571682628 x[43]
   + 2.610361788823258 x[44] + 3.918740221179118 x[45]
   + 3.616136122472904 x[46] + 1.804818047836789 x[47]
   + 0.6888080134279951 x[48] + 0.5985418276612261 x[49]
   + 1.702450043370042 x[50] + 0.3841586790192153 x[51]
   + 3.73537036830015 x[52] + 4.532424540304985 x[53]
   + 1.998680794642737 x[54] + 2.435375502363273 x[55]
   + 2.718110342024232 x[56] + 3.425044247395909 x[57]
   + 1.190890280893114 x[58] + 2.800880629182025 x[59]
   + 2.720349651873662 x[60] + 1.816429211628585 x[61]
   + 2.961625639276226 x[62] + 2.767744120813839 x[63]
   + 2.267642209616216 x[64] + 3.367778378011153 x[65]
   + 2.90514551229242 x[66] + 2.215527381787 x[67] + 2.7351436623428 x[68]
   + 0.1289210288194498 x[69] + 4.584885618080035 x[70]
   + 1.842177010578185 x[71] + 4.151680506049811 x[72]
   + 0.2004373510834579 x[73] + 0.8394672674460538 x[74]
   + 1.295674869859101 x[75] + 3.227838300567861 x[76]
   + 2.375180114813918 x[77] + 2.318246105593466 x[78]
   + 3.338484778850566 x[79] + 0.3532118946744529 x[80]
   + 1.399652480257775 x[81] + 0.1482647991924837 x[82]
   + 1.504475734673413 x[83] + 3.04460821358324 x[84]
   + 0.5664353748047617 x[85] + 3.060769259908937 x[86]
   + 2.414316897303095 x[87] + 2.190752383690862 x[88]
   + 0.227293705149555 x[89] + 2.566886482363741 x[90]
   + 0.6433928819082746 x[91] + 2.329961516988832 x[92]
   + 2.614110609090373 x[93] + 1.942453086548346 x[94]
   + 1.040246988933926 x[95] + 4.608392406113202 x[96]
   + 3.202480349008012 x[97] + 2.377957006786926 x[98]
   + 1.861074224001842 x[99] + 3.888160105064277 x[100]
   + 0.7018674343852035 x[101] + 4.585745312234955 x[102]
   + 3.621352370289113 x[103] + 2.268352245511024 x[104]
   + 2.235279704011619 x[105] + 3.729492518264822 x[106]
   + 4.353610624349824 x[107] + 1.877716026852322 x[108]
   + 1.927360682175859 x[109] + 0.1306747480161343 x[110]
   + 2.435176288451396 x[111] + 2.191375246242504 x[112]
   + 1.813020718157377 x[113] + 0.8079892142477535 x[114]
   + 3.84874805772291 x[115] + 1.268978383700808 x[116]
   + 3.766519646940013 x[117] + 1.476026568348076 x[118]
   + 0.3927407782258044 x[119] + 4.071073652924508 x[120]
   + 3.39879516842912 x[121] + 0.0863098309536676 x[122]
   + 4.279571149905799 x[123] + 3.260437912704699 x[124]
   + 2.353704536170971 x[125] + 3.134803064303308 x[126]
   + 0.4304815991941792 x[127] + 1.465417247349118 x[128]
   + 1.478387839038979 x[129] + 3.395161405406449 x[130]
   + 0.9751303706640995 x[131] + 1.302819801863353 x[132]
   + 4.385558754322842 x[133] + 1.824853267294895 x[134]
   + 1.603354453242271 x[135] + 2.840656730580325 x[136]
   + 1.171806234200994 x[137] + 2.633392355095161 x[138]
   + 3.72848540458065 x[139] + 0.1348620586634189 x[140]
   + 1.675599872615216 x[141] + 3.094548836877716 x[142]
   + 0.00128768748226129 x[143] + 4.324443140764492 x[144]
   + 0.6533811902844657 x[145] + 4.659611460109661 x[146]
   + 3.921753908101424 x[147] + 0.0562974356887157 x[148]
   + 3.129008711237305 x[149] + 61 u[0] + 14 u[1] + 84 u[2] + 49 u[3]
   + 34 u[4] + 59 u[5] + 91 u[6] + 41 u[7] + 35 u[8] + 20 u[9] + 57 u[10]
   + u[11] + 14 u[12] + 74 u[13] + 34 u[14] + 94 u[15] + 43 u[16]
   + 46 u[17] + 27 u[18] + 28 u[19] + 63 u[20] + 81 u[21] + 70 u[22]
   + 20 u[23] + 2 u[24] + 74 u[25] + 72 u[26] + 45 u[27] + 99 u[28]
   + 41 u[29] + 23 u[30] + u[31] + 61 u[32] + 19 u[33] + 34 u[34]
   + 75 u[35] + 26 u[36] + 18 u[37] + 22 u[38] + 48 u[39] + 97 u[40]
   + 71 u[41] + 80 u[42] + 15 u[43] + 93 u[44] + 4 u[45] + 75 u[46]
   + 47 u[47] + 49 u[48] + 54 u[49] + 16 u[50] + 34 u[51] + 75 u[52]
   + 82 u[53] + 30 u[54] + 13 u[55] + 19 u[56] + 12 u[57] + 70 u[58]
   + 56 u[59] + 18 u[60] + 56 u[61] + 57 u[62] + 60 u[63] + 33 u[64]
   + 58 u[65] + 86 u[66] + 48 u[67] + 30 u[68] + 23 u[69] + 51 u[70]
   + 35 u[71] + 40 u[72] + 65 u[73] + 9 u[74] + 6 u[75] + 48 u[76]
   + 29 u[77] + 66 u[78] + 96 u[79] + 3 u[80] + 99 u[81] + 64 u[82]
   + 39 u[83] + 35 u[84] + 95 u[85] + 13 u[86] + 46 u[87] + 96 u[88]
   + 85 u[89] + 34 u[90] + 78 u[91] + 50 u[92] + 89 u[93] + 14 u[94]
   + 71 u[95] + 75 u[96] + 94 u[97] + 26 u[98] + 74 u[99] + 83 u[100]
   + 58 u[101] + 36 u[102] + 86 u[103] + 19 u[104] + 76 u[105] + 33 u[106]
   + 84 u[107] + 96 u[108] + 51 u[109] + 92 u[110] + 53 u[111] + 71 u[112]
   + 91 u[113] + 83 u[114] + 80 u[115] + 77 u[116] + 23 u[117] + 75 u[118]
   + 94 u[119] + 65 u[120] + 34 u[121] + 25 u[122] + 12 u[123] + 31 u[124]
   + 44 u[125] + 57 u[126] + u[127] + 40 u[128] + 37 u[129] + 15 u[130]
   + 75 u[131] + 60 u[132] + 66 u[133] + 22 u[134] + 56 u[135] + 31 u[136]
   + 64 u[137] + 35 u[138] + 94 u[139] + 5 u[140] + 6 u[141] + 9 u[142]
   + 93 u[143] + 67 u[144] + 40 u[145] + 84 u[146] + 29 u[147] + 98 u[148]
   + 20 u[149] <= 59681
 mccormick1[0]: - u[0] + r[0] <= 0
 mccormick1[1]: - u[1] + r[1] <= 0
 mccormick1[2]: - u[2] + r[2] <= 0
 mccormick1[3]: - u[3] + r[3] <= 0
 mccormick1[4]: - u[4] + r[4] <= 0
 mccormick1[5]: - u[5] + r[5] <= 0
 mccormick1[6]: - u[6] + r[6] <= 0
 mccormick1[7]: - u[7] + r[7] <= 0
 mccormick1[8]: - u[8] + r[8] <= 0
 mccormick1[9]: - u[9] + r[9] <= 0
 mccormick1[10]: - u[10] + r[10] <= 0
 mccormick1[11]: - u[11] + r[11] <= 0
 mccormick1[12]: - u[12] + r[12] <= 0
 mccormick1[13]: - u[13] + r[13] <= 0
 mccormick1[14]: - u[14] + r[14] <= 0
 mccormick1[15]: - u[15] + r[15] <= 0
 mccormick1[16]: - u[16] + r[16] <= 0
 mccormick1[17]: - u[17] + r[17] <= 0
 mccormick1[18]: - u[18] + r[18] <= 0
 mccormick1[19]: - u[19] + r[19] <= 0
 mccormick1[20]: - u[20] + r[20] <= 0
 mccormick1[21]: - u[21] + r[21] <= 0
 mccormick1[22]: - u[22] + r[22] <= 0
 mccormick1[23]: - u[23] + r[23] <= 0
 mccormick1[24]: - u[24] + r[24] <= 0
 mccormick1[25]: - u[25] + r[25] <= 0
 mccormick1[26]: - u[26] + r[26] <= 0
 mccormick1[27]: - u[27] + r[27] <= 0
 mccormick1[28]: - u[28] + r[28] <= 0
 mccormick1[29]: - u[29] + r[29] <= 0
 mccormick1[30]: - u[30] + r[30] <= 0
 mccormick1[31]: - u[31] + r[31] <= 0
 mccormick1[32]: - u[32] + r[32] <= 0
 mccormick1[33]: - u[33] + r[33] <= 0
 mccormick1[34]: - u[34] + r[34] <= 0
 mccormick1[35]: - u[35] + r[35] <= 0
 mccormick1[36]: - u[36] + r[36] <= 0
 mccormick1[37]: - u[37] + r[37] <= 0
 mccormick1[38]: - u[38] + r[38] <= 0
 mccormick1[39]: - u[39] + r[39] <= 0
 mccormick1[40]: - u[40] + r[40] <= 0
 mccormick1[41]: - u[41] + r[41] <= 0
 mccormick1[42]: - u[42] + r[42] <= 0
 mccormick1[43]: - u[43] + r[43] <= 0
 mccormick1[44]: - u[44] + r[44] <= 0
 mccormick1[45]: - u[45] + r[45] <= 0
 mccormick1[46]: - u[46] + r[46] <= 0
 mccormick1[47]: - u[47] + r[47] <= 0
 mccormick1[48]: - u[48] + r[48] <= 0
 mccormick1[49]: - u[49] + r[49] <= 0
 mccormick1[50]: - u[50] + r[50] <= 0
 mccormick1[51]: - u[51] + r[51] <= 0
 mccormick1[52]: - u[52] + r[52] <= 0
 mccormick1[53]: - u[53] + r[53] <= 0
 mccormick1[54]: - u[54] + r[54] <= 0
 mccormick1[55]: - u[55] + r[55] <= 0
 mccormick1[56]: - u[56] + r[56] <= 0
 mccormick1[57]: - u[57] + r[57] <= 0
 mccormick1[58]: - u[58] + r[58] <= 0
 mccormick1[59]: - u[59] + r[59] <= 0
 mccormick1[60]: - u[60] + r[60] <= 0
 mccormick1[61]: - u[61] + r[61] <= 0
 mccormick1[62]: - u[62] + r[62] <= 0
 mccormick1[63]: - u[63] + r[63] <= 0
 mccormick1[64]: - u[64] + r[64] <= 0
 mccormick1[65]: - u[65] + r[65] <= 0
 mccormick1[66]: - u[66] + r[66] <= 0
 mccormick1[67]: - u[67] + r[67] <= 0
 mccormick1[68]: - u[68] + r[68] <= 0
 mccormick1[69]: - u[69] + r[69] <= 0
 mccormick1[70]: - u[70] + r[70] <= 0
 mccormick1[71]: - u[71] + r[71] <= 0
 mccormick1[72]: - u[72] + r[72] <= 0
 mccormick1[73]: - u[73] + r[73] <= 0
 mccormick1[74]: - u[74] + r[74] <= 0
 mccormick1[75]: - u[75] + r[75] <= 0
 mccormick1[76]: - u[76] + r[76] <= 0
 mccormick1[77]: - u[77] + r[77] <= 0
 mccormick1[78]: - u[78] + r[78] <= 0
 mccormick1[79]: - u[79] + r[79] <= 0
 mccormick1[80]: - u[80] + r[80] <= 0
 mccormick1[81]: - u[81] + r[81] <= 0
 mccormick1[82]: - u[82] + r[82] <= 0
 mccormick1[83]: - u[83] + r[83] <= 0
 mccormick1[84]: - u[84] + r[84] <= 0
 mccormick1[85]: - u[85] + r[85] <= 0
 mccormick1[86]: - u[86] + r[86] <= 0
 mccormick1[87]: - u[87] + r[87] <= 0
 mccormick1[88]: - u[88] + r[88] <= 0
 mccormick1[89]: - u[89] + r[89] <= 0
 mccormick1[90]: - u[90] + r[90] <= 0
 mccormick1[91]: - u[91] + r[91] <= 0
 mccormick1[92]: - u[92] + r[92] <= 0
 mccormick1[93]: - u[93] + r[93] <= 0
 mccormick1[94]: - u[94] + r[94] <= 0
 mccormick1[95]: - u[95] + r[95] <= 0
 mccormick1[96]: - u[96] + r[96] <= 0
 mccormick1[97]: - u[97] + r[97] <= 0
 mccormick1[98]: - u[98] + r[98] <= 0
 mccormick1[99]: - u[99] + r[99] <= 0
 mccormick1[100]: - u[100] + r[100] <= 0
 mccormick1[101]: - u[101] + r[101] <= 0
 mccormick1[102]: - u[102] + r[102] <= 0
 mccormick1[103]: - u[103] + r[103] <= 0
 mccormick1[104]: - u[104] + r[104] <= 0
 mccormick1[105]: - u[105] + r[105] <= 0
 mccormick1[106]: - u[106] + r[106] <= 0
 mccormick1[107]: - u[107] + r[107] <= 0
 mccormick1[108]: - u[108] + r[108] <= 0
 mccormick1[109]: - u[109] + r[109] <= 0
 mccormick1[110]: - u[110] + r[110] <= 0
 mccormick1[111]: - u[111] + r[111] <= 0
 mccormick1[112]: - u[112] + r[112] <= 0
 mccormick1[113]: - u[113] + r[113] <= 0
 mccormick1[114]: - u[114] + r[114] <= 0
 mccormick1[115]: - u[115] + r[115] <= 0
 mccormick1[116]: - u[116] + r[116] <= 0
 mccormick1[117]: - u[117] + r[117] <= 0
 mccormick1[118]: - u[118] + r[118] <= 0
 mccormick1[119]: - u[119] + r[119] <= 0
 mccormick1[120]: - u[120] + r[120] <= 0
 mccormick1[121]: - u[121] + r[121] <= 0
 mccormick1[122]: - u[122] + r[122] <= 0
 mccormick1[123]: - u[123] + r[123] <= 0
 mccormick1[124]: - u[124] + r[124] <= 0
 mccormick1[125]: - u[125] + r[125] <= 0
 mccormick1[126]: - u[126] + r[126] <= 0
 mccormick1[127]: - u[127] + r[127] <= 0
 mccormick1[128]: - u[128] + r[128] <= 0
 mccormick1[129]: - u[129] + r[129] <= 0
 mccormick1[130]: - u[130] + r[130] <= 0
 mccormick1[131]: - u[131] + r[131] <= 0
 mccormick1[132]: - u[132] + r[132] <= 0
 mccormick1[133]: - u[133] + r[133] <= 0
 mccormick1[134]: - u[134] + r[134] <= 0
 mccormick1[135]: - u[135] + r[135] <= 0
 mccormick1[136]: - u[136] + r[136] <= 0
 mccormick1[137]: - u[137] + r[137] <= 0
 mccormick1[138]: - u[138] + r[138] <= 0
 mccormick1[139]: - u[139] + r[139] <= 0
 mccormick1[140]: - u[140] + r[140] <= 0
 mccormick1[141]: - u[141] + r[141] <= 0
 mccormick1[142]: - u[142] + r[142] <= 0
 mccormick1[143]: - u[143] + r[143] <= 0
 mccormick1[144]: - u[144] + r[144] <= 0
 mccormick1[145]: - u[145] + r[145] <= 0
 mccormick1[146]: - u[146] + r[146] <= 0
 mccormick1[147]: - u[147] + r[147] <= 0
 mccormick1[148]: - u[148] + r[148] <= 0
 mccormick1[149]: - u[149] + r[149] <= 0
 mccormick2[0]: - x[0] + r[0] <= 0
 mccormick2[1]: - x[1] + r[1] <= 0
 mccormick2[2]: - x[2] + r[2] <= 0
 mccormick2[3]: - x[3] + r[3] <= 0
 mccormick2[4]: - x[4] + r[4] <= 0
 mccormick2[5]: - x[5] + r[5] <= 0
 mccormick2[6]: - x[6] + r[6] <= 0
 mccormick2[7]: - x[7] + r[7] <= 0
 mccormick2[8]: - x[8] + r[8] <= 0
 mccormick2[9]: - x[9] + r[9] <= 0
 mccormick2[10]: - x[10] + r[10] <= 0
 mccormick2[11]: - x[11] + r[11] <= 0
 mccormick2[12]: - x[12] + r[12] <= 0
 mccormick2[13]: - x[13] + r[13] <= 0
 mccormick2[14]: - x[14] + r[14] <= 0
 mccormick2[15]: - x[15] + r[15] <= 0
 mccormick2[16]: - x[16] + r[16] <= 0
 mccormick2[17]: - x[17] + r[17] <= 0
 mccormick2[18]: - x[18] + r[18] <= 0
 mccormick2[19]: - x[19] + r[19] <= 0
 mccormick2[20]: - x[20] + r[20] <= 0
 mccormick2[21]: - x[21] + r[21] <= 0
 mccormick2[22]: - x[22] + r[22] <= 0
 mccormick2[23]: - x[23] + r[23] <= 0
 mccormick2[24]: - x[24] + r[24] <= 0
 mccormick2[25]: - x[25] + r[25] <= 0
 mccormick2[26]: - x[26] + r[26] <= 0
 mccormick2[27]: - x[27] + r[27] <= 0
 mccormick2[28]: - x[28] + r[28] <= 0
 mccormick2[29]: - x[29] + r[29] <= 0
 mccormick2[30]: - x[30] + r[30] <= 0
 mccormick2[31]: - x[31] + r[31] <= 0
 mccormick2[32]: - x[32] + r[32] <= 0
 mccormick2[33]: - x[33] + r[33] <= 0
 mccormick2[34]: - x[34] + r[34] <= 0
 mccormick2[35]: - x[35] + r[35] <= 0
 mccormick2[36]: - x[36] + r[36] <= 0
 mccormick2[37]: - x[37] + r[37] <= 0
 mccormick2[38]: - x[38] + r[38] <= 0
 mccormick2[39]: - x[39] + r[39] <= 0
 mccormick2[40]: - x[40] + r[40] <= 0
 mccormick2[41]: - x[41] + r[41] <= 0
 mccormick2[42]: - x[42] + r[42] <= 0
 mccormick2[43]: - x[43] + r[43] <= 0
 mccormick2[44]: - x[44] + r[44] <= 0
 mccormick2[45]: - x[45] + r[45] <= 0
 mccormick2[46]: - x[46] + r[46] <= 0
 mccormick2[47]: - x[47] + r[47] <= 0
 mccormick2[48]: - x[48] + r[48] <= 0
 mccormick2[49]: - x[49] + r[49] <= 0
 mccormick2[50]: - x[50] + r[50] <= 0
 mccormick2[51]: - x[51] + r[51] <= 0
 mccormick2[52]: - x[52] + r[52] <= 0
 mccormick2[53]: - x[53] + r[53] <= 0
 mccormick2[54]: - x[54] + r[54] <= 0
 mccormick2[55]: - x[55] + r[55] <= 0
 mccormick2[56]: - x[56] + r[56] <= 0
 mccormick2[57]: - x[57] + r[57] <= 0
 mccormick2[58]: - x[58] + r[58] <= 0
 mccormick2[59]: - x[59] + r[59] <= 0
 mccormick2[60]: - x[60] + r[60] <= 0
 mccormick2[61]: - x[61] + r[61] <= 0
 mccormick2[62]: - x[62] + r[62] <= 0
 mccormick2[63]: - x[63] + r[63] <= 0
 mccormick2[64]: - x[64] + r[64] <= 0
 mccormick2[65]: - x[65] + r[65] <= 0
 mccormick2[66]: - x[66] + r[66] <= 0
 mccormick2[67]: - x[67] + r[67] <= 0
 mccormick2[68]: - x[68] + r[68] <= 0
 mccormick2[69]: - x[69] + r[69] <= 0
 mccormick2[70]: - x[70] + r[70] <= 0
 mccormick2[71]: - x[71] + r[71] <= 0
 mccormick2[72]: - x[72] + r[72] <= 0
 mccormick2[73]: - x[73] + r[73] <= 0
 mccormick2[74]: - x[74] + r[74] <= 0
 mccormick2[75]: - x[75] + r[75] <= 0
 mccormick2[76]: - x[76] + r[76] <= 0
 mccormick2[77]: - x[77] + r[77] <= 0
 mccormick2[78]: - x[78] + r[78] <= 0
 mccormick2[79]: - x[79] + r[79] <= 0
 mccormick2[80]: - x[80] + r[80] <= 0
 mccormick2[81]: - x[81] + r[81] <= 0
 mccormick2[82]: - x[82] + r[82] <= 0
 mccormick2[83]: - x[83] + r[83] <= 0
 mccormick2[84]: - x[84] + r[84] <= 0
 mccormick2[85]: - x[85] + r[85] <= 0
 mccormick2[86]: - x[86] + r[86] <= 0
 mccormick2[87]: - x[87] + r[87] <= 0
 mccormick2[88]: - x[88] + r[88] <= 0
 mccormick2[89]: - x[89] + r[89] <= 0
 mccormick2[90]: - x[90] + r[90] <= 0
 mccormick2[91]: - x[91] + r[91] <= 0
 mccormick2[92]: - x[92] + r[92] <= 0
 mccormick2[93]: - x[93] + r[93] <= 0
 mccormick2[94]: - x[94] + r[94] <= 0
 mccormick2[95]: - x[95] + r[95] <= 0
 mccormick2[96]: - x[96] + r[96] <= 0
 mccormick2[97]: - x[97] + r[97] <= 0
 mccormick2[98]: - x[98] + r[98] <= 0
 mccormick2[99]: - x[99] + r[99] <= 0
 mccormick2[100]: - x[100] + r[100] <= 0
 mccormick2[101]: - x[101] + r[101] <= 0
 mccormick2[102]: - x[102] + r[102] <= 0
 mccormick2[103]: - x[103] + r[103] <= 0
 mccormick2[104]: - x[104] + r[104] <= 0
 mccormick2[105]: - x[105] + r[105] <= 0
 mccormick2[106]: - x[106] + r[106] <= 0
 mccormick2[107]: - x[107] + r[107] <= 0
 mccormick2[108]: - x[108] + r[108] <= 0
 mccormick2[109]: - x[109] + r[109] <= 0
 mccormick2[110]: - x[110] + r[110] <= 0
 mccormick2[111]: - x[111] + r[111] <= 0
 mccormick2[112]: - x[112] + r[112] <= 0
 mccormick2[113]: - x[113] + r[113] <= 0
 mccormick2[114]: - x[114] + r[114] <= 0
 mccormick2[115]: - x[115] + r[115] <= 0
 mccormick2[116]: - x[116] + r[116] <= 0
 mccormick2[117]: - x[117] + r[117] <= 0
 mccormick2[118]: - x[118] + r[118] <= 0
 mccormick2[119]: - x[119] + r[119] <= 0
 mccormick2[120]: - x[120] + r[120] <= 0
 mccormick2[121]: - x[121] + r[121] <= 0
 mccormick2[122]: - x[122] + r[122] <= 0
 mccormick2[123]: - x[123] + r[123] <= 0
 mccormick2[124]: - x[124] + r[124] <= 0
 mccormick2[125]: - x[125] + r[125] <= 0
 mccormick2[126]: - x[126] + r[126] <= 0
 mccormick2[127]: - x[127] + r[127] <= 0
 mccormick2[128]: - x[128] + r[128] <= 0
 mccormick2[129]: - x[129] + r[129] <= 0
 mccormick2[130]: - x[130] + r[130] <= 0
 mccormick2[131]: - x[131] + r[131] <= 0
 mccormick2[132]: - x[132] + r[132] <= 0
 mccormick2[133]: - x[133] + r[133] <= 0
 mccormick2[134]: - x[134] + r[134] <= 0
 mccormick2[135]: - x[135] + r[135] <= 0
 mccormick2[136]: - x[136] + r[136] <= 0
 mccormick2[137]: - x[137] + r[137] <= 0
 mccormick2[138]: - x[138] + r[138] <= 0
 mccormick2[139]: - x[139] + r[139] <= 0
 mccormick2[140]: - x[140] + r[140] <= 0
 mccormick2[141]: - x[141] + r[141] <= 0
 mccormick2[142]: - x[142] + r[142] <= 0
 mccormick2[143]: - x[143] + r[143] <= 0
 mccormick2[144]: - x[144] + r[144] <= 0
 mccormick2[145]: - x[145] + r[145] <= 0
 mccormick2[146]: - x[146] + r[146] <= 0
 mccormick2[147]: - x[147] + r[147] <= 0
 mccormick2[148]: - x[148] + r[148] <= 0
 mccormick2[149]: - x[149] + r[149] <= 0
 mccormick3[0]: x[0] + u[0] - r[0] <= 1
 mccormick3[1]: x[1] + u[1] - r[1] <= 1
 mccormick3[2]: x[2] + u[2] - r[2] <= 1
 mccormick3[3]: x[3] + u[3] - r[3] <= 1
 mccormick3[4]: x[4] + u[4] - r[4] <= 1
 mccormick3[5]: x[5] + u[5] - r[5] <= 1
 mccormick3[6]: x[6] + u[6] - r[6] <= 1
 mccormick3[7]: x[7] + u[7] - r[7] <= 1
 mccormick3[8]: x[8] + u[8] - r[8] <= 1
 mccormick3[9]: x[9] + u[9] - r[9] <= 1
 mccormick3[10]: x[10] + u[10] - r[10] <= 1
 mccormick3[11]: x[11] + u[11] - r[11] <= 1
 mccormick3[12]: x[12] + u[12] - r[12] <= 1
 mccormick3[13]: x[13] + u[13] - r[13] <= 1
 mccormick3[14]: x[14] + u[14] - r[14] <= 1
 mccormick3[15]: x[15] + u[15] - r[15] <= 1
 mccormick3[16]: x[16] + u[16] - r[16] <= 1
 mccormick3[17]: x[17] + u[17] - r[17] <= 1
 mccormick3[18]: x[18] + u[18] - r[18] <= 1
 mccormick3[19]: x[19] + u[19] - r[19] <= 1
 mccormick3[20]: x[20] + u[20] - r[20] <= 1
 mccormick3[21]: x[21] + u[21] - r[21] <= 1
 mccormick3[22]: x[22] + u[22] - r[22] <= 1
 mccormick3[23]: x[23] + u[23] - r[23] <= 1
 mccormick3[24]: x[24] + u[24] - r[24] <= 1
 mccormick3[25]: x[25] + u[25] - r[25] <= 1
 mccormick3[26]: x[26] + u[26] - r[26] <= 1
 mccormick3[27]: x[27] + u[27] - r[27] <= 1
 mccormick3[28]: x[28] + u[28] - r[28] <= 1
 mccormick3[29]: x[29] + u[29] - r[29] <= 1
 mccormick3[30]: x[30] + u[30] - r[30] <= 1
 mccormick3[31]: x[31] + u[31] - r[31] <= 1
 mccormick3[32]: x[32] + u[32] - r[32] <= 1
 mccormick3[33]: x[33] + u[33] - r[33] <= 1
 mccormick3[34]: x[34] + u[34] - r[34] <= 1
 mccormick3[35]: x[35] + u[35] - r[35] <= 1
 mccormick3[36]: x[36] + u[36] - r[36] <= 1
 mccormick3[37]: x[37] + u[37] - r[37] <= 1
 mccormick3[38]: x[38] + u[38] - r[38] <= 1
 mccormick3[39]: x[39] + u[39] - r[39] <= 1
 mccormick3[40]: x[40] + u[40] - r[40] <= 1
 mccormick3[41]: x[41] + u[41] - r[41] <= 1
 mccormick3[42]: x[42] + u[42] - r[42] <= 1
 mccormick3[43]: x[43] + u[43] - r[43] <= 1
 mccormick3[44]: x[44] + u[44] - r[44] <= 1
 mccormick3[45]: x[45] + u[45] - r[45] <= 1
 mccormick3[46]: x[46] + u[46] - r[46] <= 1
 mccormick3[47]: x[47] + u[47] - r[47] <= 1
 mccormick3[48]: x[48] + u[48] - r[48] <= 1
 mccormick3[49]: x[49] + u[49] - r[49] <= 1
 mccormick3[50]: x[50] + u[50] - r[50] <= 1
 mccormick3[51]: x[51] + u[51] - r[51] <= 1
 mccormick3[52]: x[52] + u[52] - r[52] <= 1
 mccormick3[53]: x[53] + u[53] - r[53] <= 1
 mccormick3[54]: x[54] + u[54] - r[54] <= 1
 mccormick3[55]: x[55] + u[55] - r[55] <= 1
 mccormick3[56]: x[56] + u[56] - r[56] <= 1
 mccormick3[57]: x[57] + u[57] - r[57] <= 1
 mccormick3[58]: x[58] + u[58] - r[58] <= 1
 mccormick3[59]: x[59] + u[59] - r[59] <= 1
 mccormick3[60]: x[60] + u[60] - r[60] <= 1
 mccormick3[61]: x[61] + u[61] - r[61] <= 1
 mccormick3[62]: x[62] + u[62] - r[62] <= 1
 mccormick3[63]: x[63] + u[63] - r[63] <= 1
 mccormick3[64]: x[64] + u[64] - r[64] <= 1
 mccormick3[65]: x[65] + u[65] - r[65] <= 1
 mccormick3[66]: x[66] + u[66] - r[66] <= 1
 mccormick3[67]: x[67] + u[67] - r[67] <= 1
 mccormick3[68]: x[68] + u[68] - r[68] <= 1
 mccormick3[69]: x[69] + u[69] - r[69] <= 1
 mccormick3[70]: x[70] + u[70] - r[70] <= 1
 mccormick3[71]: x[71] + u[71] - r[71] <= 1
 mccormick3[72]: x[72] + u[72] - r[72] <= 1
 mccormick3[73]: x[73] + u[73] - r[73] <= 1
 mccormick3[74]: x[74] + u[74] - r[74] <= 1
 mccormick3[75]: x[75] + u[75] - r[75] <= 1
 mccormick3[76]: x[76] + u[76] - r[76] <= 1
 mccormick3[77]: x[77] + u[77] - r[77] <= 1
 mccormick3[78]: x[78] + u[78] - r[78] <= 1
 mccormick3[79]: x[79] + u[79] - r[79] <= 1
 mccormick3[80]: x[80] + u[80] - r[80] <= 1
 mccormick3[81]: x[81] + u[81] - r[81] <= 1
 mccormick3[82]: x[82] + u[82] - r[82] <= 1
 mccormick3[83]: x[83] + u[83] - r[83] <= 1
 mccormick3[84]: x[84] + u[84] - r[84] <= 1
 mccormick3[85]: x[85] + u[85] - r[85] <= 1
 mccormick3[86]: x[86] + u[86] - r[86] <= 1
 mccormick3[87]: x[87] + u[87] - r[87] <= 1
 mccormick3[88]: x[88] + u[88] - r[88] <= 1
 mccormick3[89]: x[89] + u[89] - r[89] <= 1
 mccormick3[90]: x[90] + u[90] - r[90] <= 1
 mccormick3[91]: x[91] + u[91] - r[91] <= 1
 mccormick3[92]: x[92] + u[92] - r[92] <= 1
 mccormick3[93]: x[93] + u[93] - r[93] <= 1
 mccormick3[94]: x[94] + u[94] - r[94] <= 1
 mccormick3[95]: x[95] + u[95] - r[95] <= 1
 mccormick3[96]: x[96] + u[96] - r[96] <= 1
 mccormick3[97]: x[97] + u[97] - r[97] <= 1
 mccormick3[98]: x[98] + u[98] - r[98] <= 1
 mccormick3[99]: x[99] + u[99] - r[99] <= 1
 mccormick3[100]: x[100] + u[100] - r[100] <= 1
 mccormick3[101]: x[101] + u[101] - r[101] <= 1
 mccormick3[102]: x[102] + u[102] - r[102] <= 1
 mccormick3[103]: x[103] + u[103] - r[103] <= 1
 mccormick3[104]: x[104] + u[104] - r[104] <= 1
 mccormick3[105]: x[105] + u[105] - r[105] <= 1
 mccormick3[106]: x[106] + u[106] - r[106] <= 1
 mccormick3[107]: x[107] + u[107] - r[107] <= 1
 mccormick3[108]: x[108] + u[108] - r[108] <= 1
 mccormick3[109]: x[109] + u[109] - r[109] <= 1
 mccormick3[110]: x[110] + u[110] - r[110] <= 1
 mccormick3[111]: x[111] + u[111] - r[111] <= 1
 mccormick3[112]: x[112] + u[112] - r[112] <= 1
 mccormick3[113]: x[113] + u[113] - r[113] <= 1
 mccormick3[114]: x[114] + u[114] - r[114] <= 1
 mccormick3[115]: x[115] + u[115] - r[115] <= 1
 mccormick3[116]: x[116] + u[116] - r[116] <= 1
 mccormick3[117]: x[117] + u[117] - r[117] <= 1
 mccormick3[118]: x[118] + u[118] - r[118] <= 1
 mccormick3[119]: x[119] + u[119] - r[119] <= 1
 mccormick3[120]: x[120] + u[120] - r[120] <= 1
 mccormick3[121]: x[121] + u[121] - r[121] <= 1
 mccormick3[122]: x[122] + u[122] - r[122] <= 1
 mccormick3[123]: x[123] + u[123] - r[123] <= 1
 mccormick3[124]: x[124] + u[124] - r[124] <= 1
 mccormick3[125]: x[125] + u[125] - r[125] <= 1
 mccormick3[126]: x[126] + u[126] - r[126] <= 1
 mccormick3[127]: x[127] + u[127] - r[127] <= 1
 mccormick3[128]: x[128] + u[128] - r[128] <= 1
 mccormick3[129]: x[129] + u[129] - r[129] <= 1
 mccormick3[130]: x[130] + u[130] - r[130] <= 1
 mccormick3[131]: x[131] + u[131] - r[131] <= 1
 mccormick3[132]: x[132] + u[132] - r[132] <= 1
 mccormick3[133]: x[133] + u[133] - r[133] <= 1
 mccormick3[134]: x[134] + u[134] - r[134] <= 1
 mccormick3[135]: x[135] + u[135] - r[135] <= 1
 mccormick3[136]: x[136] + u[136] - r[136] <= 1
 mccormick3[137]: x[137] + u[137] - r[137] <= 1
 mccormick3[138]: x[138] + u[138] - r[138] <= 1
 mccormick3[139]: x[139] + u[139] - r[139] <= 1
 mccormick3[140]: x[140] + u[140] - r[140] <= 1
 mccormick3[141]: x[141] + u[141] - r[141] <= 1
 mccormick3[142]: x[142] + u[142] - r[142] <= 1
 mccormick3[143]: x[143] + u[143] - r[143] <= 1
 mccormick3[144]: x[144] + u[144] - r[144] <= 1
 mccormick3[145]: x[145] + u[145] - r[145] <= 1
 mccormick3[146]: x[146] + u[146] - r[146] <= 1
 mccormick3[147]: x[147] + u[147] - r[147] <= 1
 mccormick3[148]: x[148] + u[148] - r[148] <= 1
 mccormick3[149]: x[149] + u[149] - r[149] <= 1
Bounds
Binaries
 x[0] x[1] x[2] x[3] x[4] x[5] x[6] x[7] x[8] x[9] x[10] x[11] x[12] x[13]
 x[14] x[15] x[16] x[17] x[18] x[19] x[20] x[21] x[22] x[23] x[24] x[25]
 x[26] x[27] x[28] x[29] x[30] x[31] x[32] x[33] x[34] x[35] x[36] x[37]
 x[38] x[39] x[40] x[41] x[42] x[43] x[44] x[45] x[46] x[47] x[48] x[49]
 x[50] x[51] x[52] x[53] x[54] x[55] x[56] x[57] x[58] x[59] x[60] x[61]
 x[62] x[63] x[64] x[65] x[66] x[67] x[68] x[69] x[70] x[71] x[72] x[73]
 x[74] x[75] x[76] x[77] x[78] x[79] x[80] x[81] x[82] x[83] x[84] x[85]
 x[86] x[87] x[88] x[89] x[90] x[91] x[92] x[93] x[94] x[95] x[96] x[97]
 x[98] x[99] x[100] x[101] x[102] x[103] x[104] x[105] x[106] x[107] x[108]
 x[109] x[110] x[111] x[112] x[113] x[114] x[115] x[116] x[117] x[118]
 x[119] x[120] x[121] x[122] x[123] x[124] x[125] x[126] x[127] x[128]
 x[129] x[130] x[131] x[132] x[133] x[134] x[135] x[136] x[137] x[138]
 x[139] x[140] x[141] x[142] x[143] x[144] x[145] x[146] x[147] x[148]
 x[149] u[0] u[1] u[2] u[3] u[4] u[5] u[6] u[7] u[8] u[9] u[10] u[11] u[12]
 u[13] u[14] u[15] u[16] u[17] u[18] u[19] u[20] u[21] u[22] u[23] u[24]
 u[25] u[26] u[27] u[28] u[29] u[30] u[31] u[32] u[33] u[34] u[35] u[36]
 u[37] u[38] u[39] u[40] u[41] u[42] u[43] u[44] u[45] u[46] u[47] u[48]
 u[49] u[50] u[51] u[52] u[53] u[54] u[55] u[56] u[57] u[58] u[59] u[60]
 u[61] u[62] u[63] u[64] u[65] u[66] u[67] u[68] u[69] u[70] u[71] u[72]
 u[73] u[74] u[75] u[76] u[77] u[78] u[79] u[80] u[81] u[82] u[83] u[84]
 u[85] u[86] u[87] u[88] u[89] u[90] u[91] u[92] u[93] u[94] u[95] u[96]
 u[97] u[98] u[99] u[100] u[101] u[102] u[103] u[104] u[105] u[106] u[107]
 u[108] u[109] u[110] u[111] u[112] u[113] u[114] u[115] u[116] u[117]
 u[118] u[119] u[120] u[121] u[122] u[123] u[124] u[125] u[126] u[127]
 u[128] u[129] u[130] u[131] u[132] u[133] u[134] u[135] u[136] u[137]
 u[138] u[139] u[140] u[141] u[142] u[143] u[144] u[145] u[146] u[147]
 u[148] u[149] r[0] r[1] r[2] r[3] r[4] r[5] r[6] r[7] r[8] r[9] r[10]
 r[11] r[12] r[13] r[14] r[15] r[16] r[17] r[18] r[19] r[20] r[21] r[22]
 r[23] r[24] r[25] r[26] r[27] r[28] r[29] r[30] r[31] r[32] r[33] r[34]
 r[35] r[36] r[37] r[38] r[39] r[40] r[41] r[42] r[43] r[44] r[45] r[46]
 r[47] r[48] r[49] r[50] r[51] r[52] r[53] r[54] r[55] r[56] r[57] r[58]
 r[59] r[60] r[61] r[62] r[63] r[64] r[65] r[66] r[67] r[68] r[69] r[70]
 r[71] r[72] r[73] r[74] r[75] r[76] r[77] r[78] r[79] r[80] r[81] r[82]
 r[83] r[84] r[85] r[86] r[87] r[88] r[89] r[90] r[91] r[92] r[93] r[94]
 r[95] r[96] r[97] r[98] r[99] r[100] r[101] r[102] r[103] r[104] r[105]
 r[106] r[107] r[108] r[109] r[110] r[111] r[112] r[113] r[114] r[115]
 r[116] r[117] r[118] r[119] r[120] r[121] r[122] r[123] r[124] r[125]
 r[126] r[127] r[128] r[129] r[130] r[131] r[132] r[133] r[134] r[135]
 r[136] r[137] r[138] r[139] r[140] r[141] r[142] r[143] r[144] r[145]
 r[146] r[147] r[148] r[149]
End
