instances/knapsack/discrete/knapsack_150_2.kp
37076
150
688

69 6.9 67
5 0.5 4
95 9.5 57
64 6.4 77
81 8.1 51
79 7.9 98
98 9.8 71
9 0.9 9
50 5.0 12
15 1.5 40
93 9.3 24
24 2.4 84
49 4.9 80
13 1.3 59
10 1.0 84
10 1.0 5
74 7.4 95
17 1.7 31
50 5.0 4
39 3.9 35
38 3.8 67
17 1.7 76
97 9.7 69
68 6.8 93
2 0.2 90
9 0.9 76
75 7.5 1
61 6.1 85
23 2.3 63
40 4.0 30
83 8.3 98
41 4.1 93
17 1.7 25
42 4.2 24
13 1.3 73
30 3.0 50
5 0.5 98
54 5.4 92
57 5.7 80
80 8.0 5
56 5.6 81
43 4.3 11
19 1.9 3
55 5.5 68
92 9.2 12
8 0.8 52
95 9.5 62
7 0.7 50
20 2.0 78
53 5.3 43
36 3.6 84
1 0.1 76
34 3.4 64
89 8.9 78
90 9.0 61
37 3.7 27
94 9.4 40
40 4.0 49
25 2.5 61
47 4.7 68
50 5.0 37
16 1.6 23
21 2.1 91
12 1.2 35
93 9.3 20
57 5.7 10
6 0.6 62
60 6.0 7
89 8.9 42
59 5.9 75
55 5.5 38
47 4.7 16
35 3.5 78
52 5.2 27
65 6.5 8
2 0.2 75
56 5.6 11
8 0.8 18
30 3.0 53
100 10.0 57
7 0.7 24
7 0.7 95
56 5.6 19
55 5.5 3
31 3.1 26
67 6.7 82
21 2.1 7
49 4.9 84
99 9.9 49
44 4.4 72
98 9.8 63
46 4.6 83
34 3.4 19
1 0.1 38
61 6.1 25
66 6.6 52
46 4.6 78
42 4.2 81
29 2.9 66
49 4.9 98
46 4.6 6
65 6.5 75
51 5.1 36
21 2.1 43
54 5.4 72
43 4.3 80
60 6.0 55
36 3.6 26
76 7.6 71
34 3.4 6
48 4.8 7
44 4.4 31
78 7.8 87
34 3.4 41
18 1.8 43
88 8.8 18
92 9.2 52
62 6.2 22
30 3.0 27
10 1.0 32
53 5.3 91
82 8.2 4
89 8.9 99
92 9.2 80
6 0.6 53
60 6.0 6
33 3.3 90
41 4.1 3
80 8.0 77
64 6.4 34
7 0.7 72
50 5.0 64
100 10.0 17
61 6.1 48
78 7.8 59
15 1.5 21
98 9.8 86
32 3.2 7
67 6.7 12
73 7.3 87
72 7.2 43
58 5.8 34
92 9.2 55
56 5.6 89
2 0.2 93
27 2.7 100
55 5.5 90
100 10.0 8
2 0.2 22
31 3.1 20

59681
720

[1.6817132675318318 2.2706723488632727 0.33448990100062675 4.706246434390731 0.2816782639012215 4.508772170156073 0.24311150849024532 4.288136331926507 2.8024506019660427 1.108096166831569 2.4359909264255006 1.2226251697467405 1.8694113893514965 2.8790564118356445 3.9146477895561973 2.207476865441376 3.7128075103368405 2.1927683982349344 1.1016819005364697 0.028532566287440275 4.726642422555406 1.568774103136857 1.9628060663635316 2.414949390072991 0.665686113322555 2.585521215660233 2.950798713803915 3.530557156665942 1.782626297395036 0.0958220249898062 3.443507325952154 0.48512607198286994 4.69005679709737 1.5561526175250755 1.3178744789777932 3.0517071331201104 1.8220904563002813 0.2285100947225885 1.3372266010578906 1.3905403585330338 1.1950157167555453 1.0463401932803107 1.2900713841791893 2.2015215716826275 2.6103617888232575 3.9187402211791182 3.616136122472904 1.8048180478367892 0.6888080134279951 0.5985418276612261 1.7024500433700416 0.3841586790192153 3.73537036830015 4.5324245403049845 1.9986807946427367 2.435375502363273 2.718110342024232 3.4250442473959093 1.1908902808931143 2.800880629182025 2.7203496518736623 1.8164292116285852 2.961625639276226 2.7677441208138394 2.267642209616216 3.3677783780111534 2.90514551229242 2.2155273817870005 2.7351436623428005 0.1289210288194498 4.584885618080035 1.8421770105781845 4.151680506049811 0.20043735108345792 0.8394672674460538 1.2956748698591007 3.2278383005678615 2.3751801148139178 2.318246105593466 3.338484778850566 0.35321189467445285 1.399652480257775 0.14826479919248373 1.5044757346734132 3.0446082135832397 0.5664353748047617 3.0607692599089367 2.414316897303095 2.1907523836908624 0.22729370514955496 2.5668864823637407 0.6433928819082746 2.3299615169888317 2.614110609090373 1.9424530865483463 1.0402469889339259 4.608392406113202 3.202480349008012 2.3779570067869265 1.8610742240018416 3.888160105064277 0.7018674343852035 4.5857453122349545 3.621352370289113 2.2683522455110237 2.2352797040116195 3.729492518264822 4.353610624349824 1.8777160268523216 1.927360682175859 0.13067474801613432 2.4351762884513963 2.191375246242504 1.8130207181573768 0.8079892142477535 3.8487480577229096 1.2689783837008084 3.7665196469400133 1.4760265683480762 0.3927407782258044 4.0710736529245075 3.3987951684291198 0.08630983095366762 4.279571149905799 3.2604379127046994 2.3537045361709708 3.1348030643033082 0.4304815991941792 1.4654172473491183 1.4783878390389786 3.395161405406449 0.9751303706640995 1.3028198018633526 4.385558754322842 1.8248532672948954 1.603354453242271 2.840656730580325 1.171806234200994 2.6333923550951615 3.7284854045806504 0.13486205866341885 1.675599872615216 3.094548836877716 0.0012876874822612904 4.324443140764492 0.6533811902844657 4.659611460109661 3.9217539081014237 0.056297435688715675 3.1290087112373053]

[61 14 84 49 34 59 91 41 35 20 57 1 14 74 34 94 43 46 27 28 63 81 70 20 2 74 72 45 99 41 23 1 61 19 34 75 26 18 22 48 97 71 80 15 93 4 75 47 49 54 16 34 75 82 30 13 19 12 70 56 18 56 57 60 33 58 86 48 30 23 51 35 40 65 9 6 48 29 66 96 3 99 64 39 35 95 13 46 96 85 34 78 50 89 14 71 75 94 26 74 83 58 36 86 19 76 33 84 96 51 92 53 71 91 83 80 77 23 75 94 65 34 25 12 31 44 57 1 40 37 15 75 60 66 22 56 31 64 35 94 5 6 9 93 67 40 84 29 98 20]
